148
10000
2151
3567
3202
4209
4250
1763
173
3019
1100
1703
243
3550
402
1967
929
413
1340
3021
1203
1830
491
2481
1249
3047
1860
1700
1760
4505
2375
4666
999
1691
987
450
2479
2008
958
4374
105
1309
1750
3185
4083
1469
1825
1737
2696
191
4738
4081
937
957
1062
587
654
2248
2000
329
2190
3036
3374
3901
3330
4731
1660
364
2817
321
1974
769
4731
78
623
257
619
1506
3466
1196
1537
4335
4694
3085
391
1343
2446
933
1262
2285
3390
738
3327
253
3783
2121
508
593
4007
3252
453
4555
378
3258
1554
2689
1917
1566
1928
654
2488
461
966
3938
2843
1489
1239
3974
1940
756
1905
1492
313
2253
3133
302
1357
1032
1376
4
1096
2735
2996
2922
2611
928
1455
4131
961
2290
561
4263
3237
1903
1467
2579
3734
3796
4579
259
